
Gurobi 9.5.0 (linux64) logging started Sat Nov  4 11:39:07 2023

Set parameter LogFile to value "/lustre1/scratch/348/vsc34888/JointResearch/05.Models/06.Benchmarking/E.Representative_days_based_on_Line_Benefits_OptModel/RTS24_ByStages_nc50/openStarNet_RTS24_ByStages_nc50.log"
Set parameter Method to value 2
Set parameter MIPFocus to value 1
Set parameter Presolve to value 2
Set parameter RINS to value 100
Set parameter MIPGap to value 0.01
Set parameter Threads to value 36
Set parameter TimeLimit to value 604800
Set parameter IterationLimit to value 760000000
Gurobi Optimizer version 9.5.0 build v9.5.0rc5 (linux64)
Thread count: 36 physical cores, 36 logical processors, using up to 36 threads
Optimize a model with 22253 rows, 12645 columns and 60676 nonzeros
Model fingerprint: 0xc09893b6
Variable types: 12606 continuous, 39 integer (39 binary)
Coefficient statistics:
  Matrix range     [1e-03, 2e+03]
  Objective range  [1e+00, 1e+00]
  Bounds range     [4e-04, 3e+00]
  RHS range        [4e-04, 3e+00]
Presolve removed 10853 rows and 5352 columns
Presolve time: 0.09s
Presolved: 11400 rows, 7293 columns, 39604 nonzeros
Variable types: 7254 continuous, 39 integer (39 binary)
Found heuristic solution: objective 150.0917828
Root relaxation presolved: 11400 rows, 7293 columns, 39604 nonzeros

Root barrier log...

Ordering time: 0.00s

Barrier statistics:
 Dense cols : 39
 AA' NZ     : 8.435e+04
 Factor NZ  : 2.732e+05 (roughly 10 MB of memory)
 Factor Ops : 8.169e+06 (less than 1 second per iteration)
 Threads    : 36

                  Objective                Residual
Iter       Primal          Dual         Primal    Dual     Compl     Time
   0   5.87777000e+05 -1.29872686e+08  4.27e+00 6.03e+02  1.58e+04     0s
   1   6.02083146e+04 -3.39220897e+07  3.63e-01 6.09e-09  1.96e+03     0s
   2   1.64869301e+04 -3.03133062e+06  7.14e-03 2.82e-09  1.34e+02     0s
   3   1.02601745e+04 -1.91244101e+05  7.11e-13 1.65e-10  8.73e+00     0s
   4   2.02366768e+03 -2.47517114e+04  6.86e-13 1.67e-11  1.16e+00     0s
   5   1.05466018e+03 -7.38857396e+03  5.17e-13 4.66e-12  3.66e-01     0s
   6   7.65606624e+02 -3.98173143e+03  2.69e-13 2.43e-12  2.06e-01     0s
   7   4.29583249e+02 -1.34246157e+03  2.31e-13 1.82e-12  7.68e-02     0s
   8   2.58439689e+02 -2.67277621e+02  2.66e-13 1.82e-12  2.28e-02     0s
   9   1.81863384e+02 -5.07474578e+01  1.83e-13 1.82e-12  1.01e-02     0s
  10   1.32266734e+02  5.02766993e+01  8.23e-13 1.82e-12  3.55e-03     0s
  11   1.12257209e+02  8.21225930e+01  1.05e-12 1.82e-12  1.31e-03     0s
  12   1.03887954e+02  9.15403829e+01  1.97e-12 1.82e-12  5.35e-04     0s
  13   1.00600555e+02  9.39020143e+01  5.28e-12 1.82e-12  2.90e-04     0s
  14   9.88750754e+01  9.44233709e+01  3.38e-12 7.28e-12  1.93e-04     0s
  15   9.82570016e+01  9.50362702e+01  4.02e-12 3.64e-12  1.40e-04     0s
  16   9.70886774e+01  9.53886192e+01  4.35e-11 3.64e-12  7.36e-05     0s
  17   9.64498525e+01  9.55996826e+01  7.07e-11 1.82e-12  3.68e-05     0s
  18   9.60280860e+01  9.57204575e+01  6.01e-11 1.82e-12  1.33e-05     0s
  19   9.58755977e+01  9.57611920e+01  3.34e-10 3.64e-12  4.96e-06     0s
  20   9.58309334e+01  9.58068854e+01  1.45e-10 1.82e-12  1.04e-06     0s
  21   9.58180983e+01  9.58149523e+01  5.40e-11 1.82e-12  1.36e-07     0s
  22   9.58160706e+01  9.58158252e+01  1.27e-09 3.64e-12  1.06e-08     0s
  23   9.58158868e+01  9.58158719e+01  3.52e-09 3.64e-12  6.46e-10     0s
  24   9.58158727e+01  9.58158727e+01  3.16e-10 3.64e-12  2.36e-13     0s

Barrier solved model in 24 iterations and 0.49 seconds (0.36 work units)
Optimal objective 9.58158727e+01


Root relaxation: objective 9.581587e+01, 894 iterations, 0.35 seconds (0.19 work units)

    Nodes    |    Current Node    |     Objective Bounds      |     Work
 Expl Unexpl |  Obj  Depth IntInf | Incumbent    BestBd   Gap | It/Node Time

     0     0   95.81587    0   10  150.09178   95.81587  36.2%     -    0s
H    0     0                     108.1075270   95.81587  11.4%     -    0s
     0     0   99.40071    0   11  108.10753   99.40071  8.05%     -    0s
     0     0   99.89903    0   10  108.10753   99.89903  7.59%     -    1s
     0     0   99.96360    0   12  108.10753   99.96360  7.53%     -    1s
     0     0   99.96360    0   12  108.10753   99.96360  7.53%     -    1s
     0     0  100.23474    0   13  108.10753  100.23474  7.28%     -    1s
     0     0  100.23666    0   11  108.10753  100.23666  7.28%     -    1s
     0     0  100.23666    0   11  108.10753  100.23666  7.28%     -    1s
     0     0  100.24996    0   11  108.10753  100.24996  7.27%     -    1s
     0     0  100.24996    0   11  108.10753  100.24996  7.27%     -    1s
     0     0  100.25087    0   11  108.10753  100.25087  7.27%     -    1s
     0     0  100.25087    0   10  108.10753  100.25087  7.27%     -    2s
H    0     0                     107.2930358  100.25087  6.56%     -    3s
     0     2  100.25087    0   10  107.29304  100.25087  6.56%     -    3s
   118    40     cutoff    9       107.29304  103.30474  3.72%   142    7s
   154    42  104.31326   10    5  107.29304  103.36853  3.66%   132   10s

Cutting planes:
  Gomory: 6
  MIR: 278
  Relax-and-lift: 1

Explored 287 nodes (34447 simplex iterations) in 10.20 seconds (9.73 work units)
Thread count was 36 (of 36 available processors)

Solution count 3: 107.293 108.108 150.092 

Optimal solution found (tolerance 1.00e-02)
Best objective 1.072930358365e+02, best bound 1.064560749552e+02, gap 0.7801%

Gurobi 9.5.0 (linux64) logging started Sat Nov  4 11:39:19 2023

Set parameter LogFile to value "/lustre1/scratch/348/vsc34888/JointResearch/05.Models/06.Benchmarking/E.Representative_days_based_on_Line_Benefits_OptModel/RTS24_ByStages_nc50/openStarNet_RTS24_ByStages_nc50.log"
Set parameter Method to value 2
Set parameter MIPFocus to value 1
Set parameter Presolve to value 2
Set parameter RINS to value 100
Set parameter MIPGap to value 0.01
Set parameter Threads to value 36
Set parameter TimeLimit to value 604800
Set parameter IterationLimit to value 760000000
No parameters matching 'relax_integrality' found
Gurobi Optimizer version 9.5.0 build v9.5.0rc5 (linux64)
Thread count: 36 physical cores, 36 logical processors, using up to 36 threads
Optimize a model with 22253 rows, 12606 columns and 52837 nonzeros
Model fingerprint: 0x2e708e2d
Coefficient statistics:
  Matrix range     [1e-03, 2e+03]
  Objective range  [1e+00, 1e+00]
  Bounds range     [4e-04, 3e+00]
  RHS range        [4e-04, 3e+01]
Presolve removed 17605 rows and 5856 columns
Presolve time: 0.02s
Presolved: 4648 rows, 6850 columns, 17046 nonzeros

Ordering time: 0.00s

Barrier statistics:
 AA' NZ     : 1.196e+04
 Factor NZ  : 5.069e+04 (roughly 4 MB of memory)
 Factor Ops : 7.664e+05 (less than 1 second per iteration)
 Threads    : 1

                  Objective                Residual
Iter       Primal          Dual         Primal    Dual     Compl     Time
   0   6.91399156e+05 -3.91333856e+08  5.77e+00 1.01e+03  6.60e+04     0s
   1   7.25435739e+04 -5.94328924e+07  4.31e-01 4.74e-11  6.48e+03     0s
   2   3.79900473e+04 -4.86927427e+06  1.07e-01 5.86e-11  5.02e+02     0s
   3   2.14197449e+04 -5.20949251e+05  3.41e-03 5.82e-11  4.66e+01     0s
   4   7.41064858e+03 -7.50412104e+04  5.66e-05 1.62e-11  7.03e+00     0s
   5   2.98536065e+03 -1.38358030e+04  1.50e-05 1.46e-11  1.43e+00     0s
   6   9.32307974e+02 -2.96692617e+03  2.55e-06 1.46e-11  3.32e-01     0s
   7   5.07073074e+02 -1.11244995e+03  1.01e-06 1.46e-11  1.38e-01     0s
   8   2.71968510e+02 -2.53093822e+02  3.26e-07 7.28e-12  4.47e-02     0s
   9   1.41545127e+02  9.68857038e+00  4.22e-08 7.28e-12  1.12e-02     0s
  10   1.18660456e+02  6.48239777e+01  1.10e-08 1.46e-11  4.59e-03     0s
  11   1.13312243e+02  9.09154557e+01  5.37e-09 7.28e-12  1.91e-03     0s
  12   1.09941982e+02  1.00202026e+02  2.18e-09 7.28e-12  8.30e-04     0s
  13   1.07983759e+02  1.05600865e+02  4.68e-10 1.82e-12  2.03e-04     0s
  14   1.07485135e+02  1.07055244e+02  1.16e-10 3.64e-12  3.66e-05     0s
  15   1.07349903e+02  1.07263942e+02  3.38e-11 3.64e-12  7.33e-06     0s
  16   1.07309197e+02  1.07290224e+02  9.54e-12 3.64e-12  1.62e-06     0s
  17   1.07293136e+02  1.07292525e+02  4.06e-11 7.28e-12  5.20e-08     0s
  18   1.07293036e+02  1.07293036e+02  1.08e-12 7.28e-12  1.09e-13     0s

Barrier solved model in 18 iterations and 0.10 seconds (0.07 work units)
Optimal objective 1.07293036e+02

Crossover log...

     514 DPushes remaining with DInf 0.0000000e+00                 0s
       0 DPushes remaining with DInf 0.0000000e+00                 0s

     383 PPushes remaining with PInf 0.0000000e+00                 0s
       0 PPushes remaining with PInf 0.0000000e+00                 0s

  Push phase complete: Pinf 0.0000000e+00, Dinf 5.5701613e-12      0s

Iteration    Objective       Primal Inf.    Dual Inf.      Time
     392    1.0729304e+02   0.000000e+00   0.000000e+00      0s

Use crossover to convert LP symmetric solution to basic solution...
Crossover log...

       0 DPushes remaining with DInf 0.0000000e+00                 0s

     176 PPushes remaining with PInf 0.0000000e+00                 0s
       0 PPushes remaining with PInf 0.0000000e+00                 0s

  Push phase complete: Pinf 0.0000000e+00, Dinf 3.5113232e-12      0s

Iteration    Objective       Primal Inf.    Dual Inf.      Time
     574    1.0729304e+02   0.000000e+00   0.000000e+00      0s

Solved in 574 iterations and 0.14 seconds (0.10 work units)
Optimal objective  1.072930358e+02

Gurobi 9.5.0 (linux64) logging started Sat Nov  4 12:07:57 2023

Set parameter LogFile to value "/lustre1/scratch/348/vsc34888/JointResearch/05.Models/06.Benchmarking/E.Representative_days_based_on_Line_Benefits_OptModel/RTS24_ByStages_nc50/openStarNet_RTS24_ByStages_nc50.log"
Set parameter Method to value 2
Set parameter MIPFocus to value 1
Set parameter Presolve to value 2
Set parameter RINS to value 100
Set parameter MIPGap to value 0.01
Set parameter Threads to value 36
Set parameter TimeLimit to value 604800
Set parameter IterationLimit to value 760000000
Gurobi Optimizer version 9.5.0 build v9.5.0rc5 (linux64)
Thread count: 36 physical cores, 36 logical processors, using up to 36 threads
Optimize a model with 22253 rows, 12645 columns and 60676 nonzeros
Model fingerprint: 0x4cce1708
Variable types: 12606 continuous, 39 integer (39 binary)
Coefficient statistics:
  Matrix range     [1e-03, 2e+03]
  Objective range  [1e+00, 1e+00]
  Bounds range     [4e-04, 3e+00]
  RHS range        [4e-04, 3e+00]
Presolve removed 10853 rows and 5352 columns
Presolve time: 0.09s
Presolved: 11400 rows, 7293 columns, 39604 nonzeros
Variable types: 7254 continuous, 39 integer (39 binary)
Found heuristic solution: objective 150.0917828
Root relaxation presolved: 11400 rows, 7293 columns, 39604 nonzeros

Root barrier log...

Ordering time: 0.00s

Barrier statistics:
 Dense cols : 39
 AA' NZ     : 8.435e+04
 Factor NZ  : 2.719e+05 (roughly 10 MB of memory)
 Factor Ops : 8.136e+06 (less than 1 second per iteration)
 Threads    : 36

                  Objective                Residual
Iter       Primal          Dual         Primal    Dual     Compl     Time
   0   5.87777000e+05 -1.29872686e+08  4.27e+00 6.03e+02  1.58e+04     0s
   1   6.02083146e+04 -3.39220897e+07  3.63e-01 4.81e-09  1.96e+03     0s
   2   1.64869301e+04 -3.03133062e+06  7.14e-03 1.85e-09  1.34e+02     0s
   3   1.02601745e+04 -1.91244101e+05  9.55e-13 9.24e-11  8.73e+00     0s
   4   2.02366768e+03 -2.47517114e+04  5.54e-13 8.31e-12  1.16e+00     0s
   5   1.05466018e+03 -7.38857396e+03  3.32e-13 3.64e-12  3.66e-01     0s
   6   7.65606624e+02 -3.98173143e+03  2.13e-13 1.82e-12  2.06e-01     0s
   7   4.29583249e+02 -1.34246157e+03  2.90e-13 3.64e-12  7.68e-02     0s
   8   2.58439689e+02 -2.67277621e+02  2.35e-13 1.82e-12  2.28e-02     0s
   9   1.81863384e+02 -5.07474578e+01  2.40e-13 3.64e-12  1.01e-02     0s
  10   1.32266734e+02  5.02766993e+01  6.48e-13 1.82e-12  3.55e-03     0s
  11   1.12257209e+02  8.21225930e+01  7.24e-13 1.82e-12  1.31e-03     0s
  12   1.03887954e+02  9.15403829e+01  1.94e-12 1.82e-12  5.35e-04     0s
  13   1.00600555e+02  9.39020143e+01  6.06e-12 3.64e-12  2.90e-04     0s
  14   9.88750754e+01  9.44233709e+01  7.61e-12 3.64e-12  1.93e-04     0s
  15   9.82570016e+01  9.50362702e+01  4.70e-12 1.82e-12  1.40e-04     0s
  16   9.70886774e+01  9.53886192e+01  3.90e-11 1.82e-12  7.36e-05     0s
  17   9.64498525e+01  9.55996826e+01  5.54e-11 1.82e-12  3.68e-05     0s
  18   9.60280860e+01  9.57204575e+01  7.43e-11 1.82e-12  1.33e-05     0s
  19   9.58755977e+01  9.57611920e+01  2.92e-10 3.64e-12  4.96e-06     0s
  20   9.58309334e+01  9.58068854e+01  7.63e-11 1.82e-12  1.04e-06     0s
  21   9.58180983e+01  9.58149523e+01  6.93e-11 3.64e-12  1.36e-07     0s
  22   9.58160706e+01  9.58158252e+01  1.06e-09 3.64e-12  1.06e-08     0s
  23   9.58158868e+01  9.58158719e+01  1.89e-09 3.64e-12  6.46e-10     0s
  24   9.58158727e+01  9.58158727e+01  7.67e-10 3.64e-12  2.18e-13     0s

Barrier solved model in 24 iterations and 0.49 seconds (0.36 work units)
Optimal objective 9.58158727e+01


Root relaxation: objective 9.581587e+01, 894 iterations, 0.35 seconds (0.19 work units)

    Nodes    |    Current Node    |     Objective Bounds      |     Work
 Expl Unexpl |  Obj  Depth IntInf | Incumbent    BestBd   Gap | It/Node Time

     0     0   95.81587    0   10  150.09178   95.81587  36.2%     -    0s
H    0     0                     108.1075270   95.81587  11.4%     -    0s
     0     0   99.33272    0   11  108.10753   99.33272  8.12%     -    0s
     0     0   99.96365    0   11  108.10753   99.96365  7.53%     -    1s
     0     0   99.96365    0   11  108.10753   99.96365  7.53%     -    1s
     0     0  100.21990    0   12  108.10753  100.21990  7.30%     -    1s
     0     0  100.22018    0   12  108.10753  100.22018  7.30%     -    1s
     0     0  100.26439    0   10  108.10753  100.26439  7.25%     -    1s
     0     0  100.26443    0    9  108.10753  100.26443  7.25%     -    1s
     0     0  100.27257    0    9  108.10753  100.27257  7.25%     -    1s
     0     0  100.27262    0    9  108.10753  100.27262  7.25%     -    2s
     0     2  100.27262    0    9  108.10753  100.27262  7.25%     -    3s
H   11    12                     107.6372232  101.43260  5.76%   230    3s
*  180    41              10     107.2930358  103.72918  3.32%   149    3s

Cutting planes:
  Gomory: 6
  Implied bound: 46
  MIR: 244
  Relax-and-lift: 1

Explored 313 nodes (38546 simplex iterations) in 4.23 seconds (3.85 work units)
Thread count was 36 (of 36 available processors)

Solution count 4: 107.293 107.637 108.108 150.092 

Optimal solution found (tolerance 1.00e-02)
Best objective 1.072930358364e+02, best bound 1.072930358364e+02, gap 0.0000%

Gurobi 9.5.0 (linux64) logging started Sat Nov  4 12:08:04 2023

Set parameter LogFile to value "/lustre1/scratch/348/vsc34888/JointResearch/05.Models/06.Benchmarking/E.Representative_days_based_on_Line_Benefits_OptModel/RTS24_ByStages_nc50/openStarNet_RTS24_ByStages_nc50.log"
Set parameter Method to value 2
Set parameter MIPFocus to value 1
Set parameter Presolve to value 2
Set parameter RINS to value 100
Set parameter MIPGap to value 0.01
Set parameter Threads to value 36
Set parameter TimeLimit to value 604800
Set parameter IterationLimit to value 760000000
No parameters matching 'relax_integrality' found
Gurobi Optimizer version 9.5.0 build v9.5.0rc5 (linux64)
Thread count: 36 physical cores, 36 logical processors, using up to 36 threads
Optimize a model with 22253 rows, 12606 columns and 52837 nonzeros
Model fingerprint: 0x24f9db81
Coefficient statistics:
  Matrix range     [1e-03, 2e+03]
  Objective range  [1e+00, 1e+00]
  Bounds range     [4e-04, 3e+00]
  RHS range        [4e-04, 3e+01]
Presolve removed 17605 rows and 5856 columns
Presolve time: 0.02s
Presolved: 4648 rows, 6850 columns, 17046 nonzeros

Ordering time: 0.00s

Barrier statistics:
 AA' NZ     : 1.205e+04
 Factor NZ  : 5.116e+04 (roughly 4 MB of memory)
 Factor Ops : 7.794e+05 (less than 1 second per iteration)
 Threads    : 1

                  Objective                Residual
Iter       Primal          Dual         Primal    Dual     Compl     Time
   0   6.90827041e+05 -3.91333898e+08  5.77e+00 1.01e+03  6.59e+04     0s
   1   7.24888399e+04 -5.94243807e+07  4.31e-01 4.57e-11  6.47e+03     0s
   2   3.79782208e+04 -4.85155062e+06  1.07e-01 4.40e-11  5.00e+02     0s
   3   2.14118616e+04 -5.24315175e+05  3.41e-03 2.91e-11  4.68e+01     0s
   4   7.41696666e+03 -7.49300607e+04  5.73e-05 5.64e-11  7.01e+00     0s
   5   3.01944331e+03 -1.45682133e+04  1.54e-05 1.46e-11  1.50e+00     0s
   6   9.08366763e+02 -2.81644053e+03  2.39e-06 3.64e-12  3.17e-01     0s
   7   5.01320607e+02 -1.07737267e+03  9.72e-07 7.28e-12  1.34e-01     0s
   8   2.70014780e+02 -2.62290858e+02  3.18e-07 1.46e-11  4.53e-02     0s
   9   1.44803162e+02  6.02847763e+00  4.84e-08 1.46e-11  1.18e-02     0s
  10   1.21072236e+02  7.58644574e+01  1.55e-08 3.64e-12  3.85e-03     0s
  11   1.13572981e+02  9.50590310e+01  6.68e-09 1.46e-11  1.58e-03     0s
  12   1.09896225e+02  1.02025603e+02  2.57e-09 7.28e-12  6.70e-04     0s
  13   1.07977642e+02  1.05845489e+02  5.91e-10 1.46e-11  1.81e-04     0s
  14   1.07398017e+02  1.07137550e+02  7.57e-11 7.28e-12  2.22e-05     0s
  15   1.07314773e+02  1.07288760e+02  1.46e-11 1.46e-11  2.21e-06     0s
  16   1.07294548e+02  1.07292652e+02  9.83e-12 7.28e-12  1.61e-07     0s
  17   1.07293036e+02  1.07293035e+02  2.13e-12 7.28e-12  1.21e-10     0s
  18   1.07293036e+02  1.07293036e+02  2.64e-12 7.28e-12  4.74e-16     0s

Barrier solved model in 18 iterations and 0.08 seconds (0.07 work units)
Optimal objective 1.07293036e+02

Crossover log...

     520 DPushes remaining with DInf 0.0000000e+00                 0s
       0 DPushes remaining with DInf 0.0000000e+00                 0s

     389 PPushes remaining with PInf 0.0000000e+00                 0s
       0 PPushes remaining with PInf 0.0000000e+00                 0s

  Push phase complete: Pinf 0.0000000e+00, Dinf 3.0278547e-12      0s

Iteration    Objective       Primal Inf.    Dual Inf.      Time
     398    1.0729304e+02   0.000000e+00   0.000000e+00      0s

Use crossover to convert LP symmetric solution to basic solution...
Crossover log...

       0 DPushes remaining with DInf 0.0000000e+00                 0s

     209 PPushes remaining with PInf 0.0000000e+00                 0s
       0 PPushes remaining with PInf 0.0000000e+00                 0s

  Push phase complete: Pinf 0.0000000e+00, Dinf 2.9142204e-12      0s

Iteration    Objective       Primal Inf.    Dual Inf.      Time
     613    1.0729304e+02   0.000000e+00   0.000000e+00      0s

Solved in 613 iterations and 0.12 seconds (0.09 work units)
Optimal objective  1.072930358e+02

Gurobi 11.0.0 (linux64) logging started Wed Apr 10 22:03:39 2024

Set parameter LogFile to value "/lustre1/scratch/348/vsc34888/JointResearch/05.Models/06.Benchmarking/E.Representative_days_based_on_Line_Benefits_OptModel/RTS24_ByStages_nc50/openStarNet_RTS24_ByStages_nc50.log"
Set parameter Method to value 2
Set parameter MIPFocus to value 1
Set parameter Presolve to value 2
Set parameter RINS to value 100
Set parameter MIPGap to value 0.01
Set parameter Threads to value 36
Set parameter TimeLimit to value 259200
Set parameter IterationLimit to value 760000000
Gurobi Optimizer version 11.0.0 build v11.0.0rc2 (linux64 - "Rocky Linux 8.8 (Green Obsidian)")

CPU model: Intel(R) Xeon(R) Gold 6240 CPU @ 2.60GHz, instruction set [SSE2|AVX|AVX2|AVX512]
Thread count: 36 physical cores, 36 logical processors, using up to 36 threads

Optimize a model with 19453 rows, 11688 columns and 52023 nonzeros
Model fingerprint: 0x1a98b028
Variable types: 11658 continuous, 30 integer (30 binary)
Coefficient statistics:
  Matrix range     [1e-03, 1e+03]
  Objective range  [1e+00, 1e+00]
  Bounds range     [4e-04, 3e+00]
  RHS range        [4e-04, 3e+00]
Presolve removed 10439 rows and 5499 columns
Presolve time: 0.09s
Presolved: 9014 rows, 6189 columns, 31773 nonzeros
Variable types: 6159 continuous, 30 integer (30 binary)
Found heuristic solution: objective 314.0454581
Root relaxation presolved: 9014 rows, 6189 columns, 31773 nonzeros

Root barrier log...

Ordering time: 0.00s

Barrier statistics:
 Dense cols : 30
 AA' NZ     : 6.668e+04
 Factor NZ  : 1.740e+05 (roughly 8 MB of memory)
 Factor Ops : 3.704e+06 (less than 1 second per iteration)
 Threads    : 36

                  Objective                Residual
Iter       Primal          Dual         Primal    Dual     Compl     Time
   0   7.66552867e+05 -1.43228274e+08  6.71e+00 4.36e+02  2.16e+04     0s
   1   1.25725913e+05 -4.10505411e+07  8.71e-01 4.54e-09  3.13e+03     0s
   2   4.55380556e+04 -6.00336660e+06  1.39e-01 5.33e-09  3.67e+02     0s
   3   2.58440644e+04 -4.32441773e+05  1.13e-03 8.78e-11  2.41e+01     0s
   4   8.28706274e+03 -5.91680791e+04  2.46e-05 2.11e-11  3.55e+00     0s
   5   2.54554754e+03 -1.46031952e+04  6.18e-06 4.26e-12  9.01e-01     0s
   6   1.11562693e+03 -7.74815350e+03  1.76e-06 2.21e-12  4.66e-01     0s
   7   7.34373363e+02 -1.73294846e+03  7.43e-07 1.82e-12  1.30e-01     0s
   8   3.70703094e+02 -3.28405574e+02  1.65e-07 1.82e-12  3.67e-02     0s
   9   2.99071937e+02 -2.78212309e+01  9.59e-08 3.64e-12  1.72e-02     0s
  10   2.38210670e+02  1.14893106e+02  3.91e-08 1.82e-12  6.48e-03     0s
  11   2.12821285e+02  1.62862352e+02  1.68e-08 1.82e-12  2.63e-03     0s
  12   1.99890555e+02  1.79077185e+02  6.59e-09 1.82e-12  1.09e-03     0s
  13   1.96921632e+02  1.82366851e+02  4.28e-09 1.82e-12  7.65e-04     0s
  14   1.94744643e+02  1.86457322e+02  2.37e-09 1.82e-12  4.36e-04     0s
  15   1.93328271e+02  1.88521718e+02  1.30e-09 1.82e-12  2.53e-04     0s
  16   1.92220985e+02  1.89650027e+02  4.21e-10 1.82e-12  1.35e-04     0s
  17   1.91967123e+02  1.90748595e+02  2.36e-10 1.82e-12  6.40e-05     0s
  18   1.91810632e+02  1.91347435e+02  1.22e-10 1.82e-12  2.43e-05     0s
  19   1.91686522e+02  1.91495251e+02  3.51e-11 1.82e-12  1.01e-05     0s
  20   1.91659272e+02  1.91582376e+02  1.76e-11 1.82e-12  4.04e-06     0s
  21   1.91642532e+02  1.91619667e+02  4.61e-09 1.82e-12  1.20e-06     0s
  22   1.91635274e+02  1.91628695e+02  1.65e-09 1.82e-12  3.46e-07     0s
  23   1.91633659e+02  1.91631417e+02  5.48e-10 1.82e-12  1.18e-07     0s
  24   1.91633085e+02  1.91632635e+02  1.08e-10 3.64e-12  2.37e-08     0s
  25   1.91632868e+02  1.91632826e+02  3.05e-11 3.64e-12  2.21e-09     0s
  26   1.91632854e+02  1.91632854e+02  5.35e-11 1.82e-12  3.63e-12     0s

Barrier solved model in 26 iterations and 0.38 seconds (0.31 work units)
Optimal objective 1.91632854e+02


Root relaxation: objective 1.916329e+02, 1294 iterations, 0.27 seconds (0.14 work units)

    Nodes    |    Current Node    |     Objective Bounds      |     Work
 Expl Unexpl |  Obj  Depth IntInf | Incumbent    BestBd   Gap | It/Node Time

     0     0  191.63285    0   21  314.04546  191.63285  39.0%     -    0s
H    0     0                     259.8968702  194.79385  25.0%     -    0s
     0     0  194.79385    0   18  259.89687  194.79385  25.0%     -    0s
     0     0  194.79696    0   18  259.89687  194.79696  25.0%     -    0s
     0     0  195.24833    0   21  259.89687  195.24833  24.9%     -    1s
     0     0  195.32331    0   21  259.89687  195.32331  24.8%     -    1s
     0     0  195.35797    0   22  259.89687  195.35797  24.8%     -    1s
     0     0  195.37102    0   21  259.89687  195.37102  24.8%     -    1s
     0     0  195.37110    0   21  259.89687  195.37110  24.8%     -    1s
H    0     0                     253.0409514  195.37110  22.8%     -    1s
     0     0  195.54965    0   20  253.04095  195.54965  22.7%     -    1s
     0     0  195.55557    0   20  253.04095  195.55557  22.7%     -    1s
     0     0  195.55805    0   21  253.04095  195.55805  22.7%     -    1s
     0     0  195.55805    0   21  253.04095  195.55805  22.7%     -    1s
H    0     0                     248.1918709  195.55805  21.2%     -    2s
     0     0  195.61390    0   19  248.19187  195.61390  21.2%     -    2s
     0     0  195.61737    0   19  248.19187  195.61737  21.2%     -    2s
     0     0  195.62095    0   20  248.19187  195.62095  21.2%     -    2s
     0     0  195.62111    0   20  248.19187  195.62111  21.2%     -    2s
H    0     0                     245.1433762  196.93237  19.7%     -    2s
     0     0  196.93237    0   21  245.14338  196.93237  19.7%     -    2s
H    0     0                     226.2045883  196.93237  12.9%     -   21s
     0     2  196.93237    0   20  226.20459  196.93237  12.9%     -   21s
    97   131  203.88529    7   16  226.20459  202.14225  10.6%   437   35s
H   98   131                     225.2206779  202.14225  10.2%   432   35s
H  100   131                     223.7319043  202.14225  9.65%   429   35s
H  111   131                     223.5863346  202.14225  9.59%   412   35s
*  893   451              23     223.5135175  203.27087  9.06%   253   37s
  1172   482  212.31540   12   11  223.51352  203.27087  9.06%   244   41s
  2724   672     cutoff   12       223.51352  207.75076  7.05%   211   45s
  4292   960     cutoff   13       223.51352  212.90775  4.75%   199   60s
* 7601  1269              24     223.3349512  216.84266  2.91%   170   63s
  8399  1298     cutoff   18       223.33495  217.36794  2.67%   165   74s
  8764  1298     cutoff   18       223.33495  217.55805  2.59%   163   75s
H 8771  1298                     223.3349511  217.71922  2.51%   163   75s
 13385  1172  223.27048   17    5  223.33495  219.78752  1.59%   143   92s

Cutting planes:
  Implied bound: 83
  MIR: 358
  Relax-and-lift: 14

Explored 16772 nodes (2194263 simplex iterations) in 93.73 seconds (125.40 work units)
Thread count was 36 (of 36 available processors)

Solution count 10: 223.335 223.514 223.586 ... 259.897

Optimal solution found (tolerance 1.00e-02)
Best objective 2.233349511027e+02, best bound 2.213121419023e+02, gap 0.9057%

Gurobi 11.0.0 (linux64) logging started Wed Apr 10 22:05:15 2024

Set parameter LogFile to value "/lustre1/scratch/348/vsc34888/JointResearch/05.Models/06.Benchmarking/E.Representative_days_based_on_Line_Benefits_OptModel/RTS24_ByStages_nc50/openStarNet_RTS24_ByStages_nc50.log"
Set parameter Method to value 2
Set parameter MIPFocus to value 1
Set parameter Presolve to value 2
Set parameter RINS to value 100
Set parameter MIPGap to value 0.01
Set parameter Threads to value 36
Set parameter TimeLimit to value 259200
Set parameter IterationLimit to value 760000000
Gurobi Optimizer version 11.0.0 build v11.0.0rc2 (linux64 - "Rocky Linux 8.8 (Green Obsidian)")

CPU model: Intel(R) Xeon(R) Gold 6240 CPU @ 2.60GHz, instruction set [SSE2|AVX|AVX2|AVX512]
Thread count: 36 physical cores, 36 logical processors, using up to 36 threads

Optimize a model with 19453 rows, 11658 columns and 45993 nonzeros
Model fingerprint: 0x0a306ce8
Coefficient statistics:
  Matrix range     [1e-03, 1e+03]
  Objective range  [1e+00, 1e+00]
  Bounds range     [4e-04, 3e+00]
  RHS range        [4e-04, 4e+01]
Presolve removed 16589 rows and 6749 columns
Presolve time: 0.02s
Presolved: 2864 rows, 4959 columns, 12873 nonzeros

Ordering time: 0.00s

Barrier statistics:
 AA' NZ     : 6.859e+03
 Factor NZ  : 2.391e+04 (roughly 2 MB of memory)
 Factor Ops : 3.412e+05 (less than 1 second per iteration)
 Threads    : 1

                  Objective                Residual
Iter       Primal          Dual         Primal    Dual     Compl     Time
   0   3.21716628e+06 -6.10517447e+07  1.31e+01 5.49e+03  8.82e+04     0s
   1   2.00548508e+05 -4.41864462e+07  7.31e-01 5.09e-11  9.49e+03     0s
   2   7.08455146e+04 -1.15873696e+07  1.89e-01 9.00e-11  1.93e+03     0s
   3   3.73616584e+04 -1.91166601e+06  2.59e-02 4.37e-11  2.69e+02     0s
   4   2.36317492e+04 -2.75505965e+05  9.03e-06 2.03e-11  3.83e+01     0s
   5   1.08582108e+04 -8.26475166e+04  1.76e-06 1.09e-11  1.20e+01     0s
   6   4.04490230e+03 -2.00349044e+04  3.24e-07 7.28e-12  3.08e+00     0s
   7   9.55732984e+02 -4.13693458e+03  2.01e-08 7.28e-12  6.52e-01     0s
   8   5.36034845e+02 -2.53301028e+03  1.68e-09 7.28e-12  3.93e-01     0s
   9   3.95091413e+02 -5.01730432e+02  3.56e-10 7.28e-12  1.15e-01     0s
  10   3.37536781e+02 -1.43109623e+02  1.98e-10 3.64e-12  6.15e-02     0s
  11   2.88986818e+02  6.09968770e+01  9.74e-11 7.28e-12  2.92e-02     0s
  12   2.55886758e+02  1.48902250e+02  4.23e-11 3.64e-12  1.37e-02     0s
  13   2.40486219e+02  2.04243239e+02  2.10e-11 3.64e-12  4.64e-03     0s
  14   2.26017161e+02  2.19116339e+02  3.40e-12 7.28e-12  8.83e-04     0s
  15   2.23783095e+02  2.22287027e+02  1.29e-11 1.46e-11  1.92e-04     0s
  16   2.23508884e+02  2.22941754e+02  9.45e-12 7.28e-12  7.26e-05     0s
  17   2.23406436e+02  2.23208196e+02  1.42e-11 7.28e-12  2.54e-05     0s
  18   2.23341212e+02  2.23306769e+02  5.12e-12 7.28e-12  4.41e-06     0s
  19   2.23335850e+02  2.23330396e+02  9.83e-12 7.28e-12  6.98e-07     0s
  20   2.23334978e+02  2.23334896e+02  1.38e-11 1.46e-11  1.06e-08     0s
  21   2.23334951e+02  2.23334951e+02  1.03e-11 1.46e-11  1.06e-11     0s
  22   2.23334951e+02  2.23334951e+02  7.00e-12 7.28e-12  1.06e-14     0s

Barrier solved model in 22 iterations and 0.06 seconds (0.06 work units)
Optimal objective 2.23334951e+02

Crossover log...

     544 DPushes remaining with DInf 0.0000000e+00                 0s
       0 DPushes remaining with DInf 0.0000000e+00                 0s

     177 PPushes remaining with PInf 0.0000000e+00                 0s
       0 PPushes remaining with PInf 0.0000000e+00                 0s

  Push phase complete: Pinf 0.0000000e+00, Dinf 2.7154709e-12      0s

Iteration    Objective       Primal Inf.    Dual Inf.      Time
     196    2.2333495e+02   0.000000e+00   0.000000e+00      0s

Use crossover to convert LP symmetric solution to basic solution...
Crossover log...

       0 DPushes remaining with DInf 0.0000000e+00                 0s

      94 PPushes remaining with PInf 0.0000000e+00                 0s
       0 PPushes remaining with PInf 0.0000000e+00                 0s

  Push phase complete: Pinf 0.0000000e+00, Dinf 8.8688133e-13      0s

Iteration    Objective       Primal Inf.    Dual Inf.      Time
     294    2.2333495e+02   0.000000e+00   0.000000e+00      0s

Solved in 294 iterations and 0.09 seconds (0.07 work units)
Optimal objective  2.233349512e+02
